PatchBench/qemu/CWE-189-Numeric-Errors/CVE_2016_2538_fe3c546c5ff2a6210f9a4d8561cc64051ca8603e/cve1/Resultrndis_query_response2NEQ.smt2
; benchmark generated from python API
(set-info :status unknown)
(declare-fun R () (_ BitVec 32))
(declare-fun rdi () (_ BitVec 64))
(assert
 (let (($x182 (= (_ bv4294967293 32) R)))
 (let ((?x6 ((_ extract 31 0) rdi)))
 (let (($x7 (bvult ?x6 (_ bv1 32))))
 (let (($x187 (and $x7 $x182)))
 (let (($x179 (= (_ bv0 32) R)))
 (let (($x31 (bvuge ?x6 (_ bv1 32))))
 (let (($x186 (and $x31 $x179)))
 (let (($x188 (or $x186 $x187)))
 (let (($x191 (not $x188)))
 (let (($x39 (bvugt (_ bv9 32) ?x6)))
 (let (($x184 (and $x39 $x182)))
 (let (($x11 (bvule (_ bv9 32) ?x6)))
 (let (($x160 (bvuge (_ bv4294967288 32) ?x6)))
 (let (($x183 (and $x160 $x11 $x182)))
 (let (($x50 (bvult (_ bv4294967288 32) ?x6)))
 (let (($x180 (and $x31 $x50 $x11 $x179)))
 (let (($x185 (or $x180 $x183 $x184)))
 (let (($x190 (not $x185)))
 (let (($x192 (and $x190 $x191)))
 (let (($x189 (and $x185 $x188)))
 (let (($x193 (or $x189 $x192)))
 (not $x193)))))))))))))))))))))))
(check-sat)
